NAME : kroD100-C-5-1-a__cluster__26634.tour
COMMENT : Length = 26634.000
COMMENT : Generated by compare_sota_instances.py for cluster
TYPE : TOUR
DIMENSION : 100
TOUR_SECTION
47
12
28
21
82
14
33
68
45
99
31
65
1
97
32
94
17
90
98
49
70
89
11
81
34
38
66
8
52
46
23
42
22
58
29
36
75
67
7
74
61
76
72
57
78
80
86
96
16
69
15
84
24
27
88
79
13
50
41
73
39
63
54
91
77
43
71
93
4
44
60
53
62
37
35
30
51
100
2
19
48
92
5
3
83
40
6
64
59
85
18
25
20
9
55
26
87
10
95
56
-1
EOF
